%nprocshared=4
%mem=4GB
# opt=(modredundant,calcfc,maxcycles=120) wB97XD/def2SVP

OrgSynFlow scan scan-00

0 1
C   1.56883194  0.43329746 -0.02355744
C   0.76889427  1.57470480 -0.07673903
C  -0.62041183  1.45235543 -0.09670228
C  -1.20978017  0.18859868 -0.06348533
C  -0.40984233 -0.95280865 -0.01030475
C   0.97946366 -0.83045913  0.00965984
O  -1.25814003 -5.46201829 -0.31854430
C  -1.46774164 -4.32082574  0.06693833
C  -4.35532364 -3.05394552  0.27305660
C  -2.60889785 -2.31141330  0.68119316
C  -1.12174921 -2.20036139  0.84465682
O  -0.56129440 -1.19130095  1.24781571
N  -0.55736938 -3.38711838  0.47272515
Br  1.28292293 -3.70288973  0.51497134
H   2.65126136  0.52862148 -0.00800321
H   1.22808017  2.55931671 -0.10261959
H  -1.24365551  2.34164321 -0.13813574
H  -2.29220965  0.09327451 -0.07903918
H  -0.86902789 -1.93742075  0.01557453
H   1.60270746 -1.71974680  0.05109485
H  -3.31084010 -3.70961179 -0.82189247
H  -3.45121867 -4.30292224  0.85821194
H  -3.10085893 -2.15573213  1.64574584
H  -2.96049247 -1.56241926 -0.03435793

B 8 9 3.16000 F
